* ENCODING=ISO-8859-1
NAME          CPLEX
ROWS
 N  obj1    
 G  c1      
 G  c2      
 G  c3      
 G  c4      
 G  c5      
 G  c6      
 G  c7      
 G  c8      
 G  c9      
 G  c10     
 G  c11     
 G  c12     
 G  c13     
 G  c14     
 G  c15     
 G  c16     
 G  c17     
 G  c18     
 G  c19     
 G  c20     
 G  c21     
 G  c22     
 G  c23     
 G  c24     
 G  c25     
 G  c26     
 G  c27     
 G  c28     
 G  c29     
 G  c30     
 G  c31     
 G  c32     
 G  c33     
 G  c34     
 G  c35     
 G  c36     
 G  c37     
 G  c38     
 G  c39     
 G  c40     
COLUMNS
    MARK0000  'MARKER'                 'INTORG'
    x1        obj1                            1
    x1        c4                            161
    x1        c38                           836
    x1        c39                           422
    x2        obj1                            1
    x2        c10                           172
    x2        c11                           970
    x2        c13                           540
    x2        c18                           483
    x2        c22                           815
    x3        obj1                            1
    x3        c4                            922
    x3        c8                            522
    x3        c12                           518
    x3        c15                           331
    x3        c18                           613
    x3        c33                           669
    x3        c38                           420
    x3        c40                           576
    x4        obj1                            1
    x4        c10                           181
    x4        c11                           585
    x4        c19                           732
    x4        c22                           648
    x5        obj1                            1
    x5        c7                            993
    x5        c12                           430
    x5        c16                           444
    x5        c23                           697
    x5        c25                           135
    x6        obj1                            1
    x6        c2                            106
    x6        c12                           609
    x6        c26                           358
    x6        c31                           889
    x6        c39                           463
    x7        obj1                            1
    x7        c1                            141
    x7        c6                            224
    x7        c12                           861
    x7        c24                           717
    x8        obj1                            1
    x8        c8                            298
    x8        c15                           983
    x8        c17                           416
    x8        c27                           187
    x8        c39                           324
    x9        obj1                            1
    x9        c5                            888
    x9        c39                           401
    x9        c40                           450
    x10       obj1                            1
    x10       c37                           550
    x11       obj1                            1
    x11       c14                           410
    x11       c16                           640
    x11       c17                           857
    x12       obj1                            1
    x12       c9                            334
    x12       c13                           833
    x12       c19                           446
    x12       c21                           418
    x12       c27                           917
    x12       c30                           519
    x12       c34                           821
    x13       obj1                            1
    x13       c1                            241
    x13       c7                            409
    x13       c28                           130
    x13       c35                           575
    x14       obj1                            1
    x14       c4                            882
    x14       c5                            399
    x14       c10                           642
    x14       c30                           345
    x14       c35                           661
    x14       c36                           427
    x14       c37                           416
    x15       obj1                            1
    x15       c3                            284
    x15       c4                            726
    x15       c5                            372
    x15       c11                           583
    x15       c15                           591
    x15       c20                           947
    x16       obj1                            1
    x16       c6                            472
    x17       obj1                            1
    x17       c7                            742
    x17       c12                           998
    x17       c27                           391
    x17       c34                           372
    x18       obj1                            1
    x18       c6                            257
    x18       c8                            251
    x19       obj1                            1
    x19       c1                            903
    x19       c2                            255
    x19       c5                            350
    x19       c7                            690
    x19       c9                            741
    x19       c25                           461
    x19       c26                           847
    x19       c33                           391
    x20       obj1                            1
    x20       c9                            511
    x20       c17                           295
    x20       c25                           429
    x20       c28                           622
    x21       obj1                            1
    x21       c26                           253
    x22       obj1                            1
    x22       c1                            466
    x22       c12                           146
    x22       c15                           816
    x22       c23                           480
    x23       obj1                            1
    x23       c7                            509
    x24       obj1                            1
    x24       c10                           418
    x24       c13                           629
    x24       c21                           206
    x24       c30                           866
    x25       obj1                            1
    x25       c7                            306
    x25       c17                           236
    x25       c18                           653
    x25       c25                           266
    x26       obj1                            1
    x26       c4                            648
    x26       c12                           249
    x26       c17                           468
    x26       c21                           114
    x26       c28                           679
    x26       c29                           618
    x27       obj1                            1
    x27       c9                            316
    x27       c25                           499
    x27       c34                           160
    x28       obj1                            1
    x28       c23                           480
    x29       obj1                            1
    x29       c16                           204
    x29       c24                           927
    x29       c37                           467
    x29       c38                           208
    x30       obj1                            1
    x30       c18                           402
    x30       c36                           110
    x31       obj1                            1
    x31       c4                            989
    x31       c13                           958
    x32       obj1                            1
    x32       c1                            677
    x32       c16                           799
    x32       c23                           780
    x32       c27                           941
    x32       c31                           322
    x32       c35                           975
    x33       obj1                            1
    x33       c2                            849
    x33       c8                            819
    x33       c9                            371
    x33       c25                           152
    x34       obj1                            1
    x34       c3                            135
    x34       c6                            511
    x34       c16                           339
    x34       c19                           833
    x34       c31                           218
    x34       c37                           760
    x35       obj1                            1
    x35       c5                            768
    x35       c8                            964
    x35       c21                           904
    x35       c28                           646
    x35       c29                           466
    x35       c36                           936
    x35       c37                           902
    x35       c38                           403
    x36       obj1                            1
    x36       c22                           833
    x36       c24                           623
    x36       c38                           165
    x37       obj1                            1
    x37       c7                            224
    x37       c23                           266
    x37       c32                           157
    x37       c38                           986
    x38       obj1                            1
    x38       c6                            842
    x38       c10                           402
    x38       c12                           696
    x38       c13                           237
    x38       c14                           404
    x38       c18                           398
    x38       c27                           298
    x38       c28                           167
    x39       obj1                            1
    x39       c8                            232
    x39       c9                            437
    x39       c10                           306
    x39       c11                           112
    x39       c17                           861
    x39       c19                           895
    x39       c25                           361
    x40       obj1                            1
    x40       c5                            777
    x40       c6                            742
    x40       c12                           669
    x40       c14                           475
    x40       c23                           488
    x40       c35                           273
    x41       obj1                            1
    x42       obj1                            1
    x42       c24                           492
    x42       c28                           890
    x42       c29                           820
    x42       c33                           461
    x43       obj1                            1
    x43       c11                           785
    x43       c35                           313
    x44       obj1                            1
    x44       c3                            760
    x44       c23                           548
    x44       c28                           686
    x44       c33                           143
    x44       c35                           103
    x45       obj1                            1
    x45       c3                            808
    x45       c27                           522
    x46       obj1                            1
    x46       c9                            598
    x46       c21                           263
    x47       obj1                            1
    x47       c10                           223
    x47       c12                           864
    x47       c13                           294
    x47       c19                           773
    x47       c20                           356
    x47       c40                           487
    x48       obj1                            1
    x48       c2                            863
    x48       c7                            510
    x48       c9                            904
    x48       c15                           947
    x48       c19                           577
    x48       c21                           474
    x48       c23                           791
    x48       c26                           620
    x48       c29                           169
    x48       c39                           507
    x49       obj1                            1
    x49       c20                           405
    x49       c27                           843
    x49       c30                           303
    x49       c38                           707
    x49       c39                           468
    x50       obj1                            1
    x50       c4                            497
    x50       c37                           346
    x50       c38                           469
    x51       obj1                            1
    x51       c2                            744
    x51       c14                           345
    x51       c27                           452
    x52       obj1                            1
    x52       c37                           592
    x53       obj1                            1
    x53       c14                           283
    x53       c31                           266
    x54       obj1                            1
    x54       c14                           151
    x54       c38                           530
    x55       obj1                            1
    x55       c1                            543
    x55       c3                            868
    x55       c15                           807
    x55       c17                           171
    x55       c29                           716
    x56       obj1                            1
    x56       c4                            757
    x56       c9                            505
    x56       c35                           895
    x57       obj1                            1
    x57       c19                           318
    x57       c24                           348
    x57       c31                           702
    x58       obj1                            1
    x58       c13                           356
    x58       c21                           393
    x58       c31                           273
    x59       obj1                            1
    x59       c4                            936
    x59       c5                            540
    x59       c6                            105
    x59       c16                           681
    x59       c22                           465
    x59       c27                           477
    x59       c37                           380
    x60       obj1                            1
    x60       c3                            231
    x60       c9                            602
    x60       c12                           644
    x61       obj1                            1
    x61       c13                           679
    x61       c17                           892
    x61       c25                           621
    x62       obj1                            1
    x62       c15                           412
    x62       c17                           315
    x62       c18                           987
    x62       c21                           626
    x62       c31                           498
    x62       c36                           554
    x62       c39                           873
    x63       obj1                            1
    x63       c10                           671
    x63       c37                           926
    x64       obj1                            1
    x64       c5                            427
    x64       c21                           643
    x64       c28                           225
    x64       c33                           934
    x64       c34                           339
    x64       c35                           422
    x65       obj1                            1
    x65       c9                            731
    x65       c25                           125
    x65       c26                           183
    x66       obj1                            1
    x66       c10                           321
    x66       c13                           449
    x66       c20                           664
    x66       c22                           665
    x66       c32                           871
    x66       c35                           259
    x67       obj1                            1
    x67       c6                            519
    x67       c10                           650
    x67       c14                           919
    x67       c16                           797
    x67       c18                           563
    x67       c27                           224
    x67       c29                           820
    x67       c32                           248
    x67       c37                           611
    x67       c38                           590
    x68       obj1                            1
    x68       c10                           297
    x68       c25                           351
    x68       c31                           537
    x68       c32                           570
    x68       c40                           528
    x69       obj1                            1
    x69       c1                            664
    x69       c4                            558
    x69       c5                            831
    x69       c9                            961
    x70       obj1                            1
    x70       c4                            240
    x70       c24                           587
    x70       c35                           614
    x71       obj1                            1
    x71       c7                            825
    x71       c15                           732
    x71       c16                           908
    x71       c17                           288
    x71       c31                           112
    x71       c33                           898
    x72       obj1                            1
    x72       c3                            751
    x72       c4                            490
    x72       c8                            345
    x72       c13                           752
    x72       c14                           108
    x72       c29                           550
    x72       c37                           251
    x73       obj1                            1
    x73       c13                           635
    x73       c19                           233
    x73       c38                           251
    x74       obj1                            1
    x74       c8                            821
    x74       c16                           356
    x74       c20                           853
    x75       obj1                            1
    x75       c1                            317
    x75       c12                           707
    x75       c32                           858
    x75       c40                           333
    x76       obj1                            1
    x76       c10                           504
    x76       c18                           411
    x76       c25                           154
    x76       c30                           936
    x77       obj1                            1
    x77       c17                           802
    x77       c22                           620
    x77       c24                           986
    x78       obj1                            1
    x78       c7                            651
    x78       c8                            453
    x78       c27                           859
    x79       obj1                            1
    x79       c6                            624
    x79       c24                           392
    x79       c27                           810
    x79       c32                           271
    x80       obj1                            1
    x80       c28                           426
    MARK0001  'MARKER'                 'INTEND'
RHS
    rhs       c1                           1976
    rhs       c2                           1409
    rhs       c3                           1919
    rhs       c4                           3903
    rhs       c5                           2676
    rhs       c6                           2148
    rhs       c7                           2930
    rhs       c8                           2353
    rhs       c9                           3506
    rhs       c10                          2394
    rhs       c11                          1518
    rhs       c12                          3696
    rhs       c13                          3181
    rhs       c14                          1548
    rhs       c15                          2810
    rhs       c16                          2584
    rhs       c17                          2801
    rhs       c18                          2255
    rhs       c19                          2404
    rhs       c20                          1613
    rhs       c21                          2021
    rhs       c22                          2023
    rhs       c23                          2265
    rhs       c24                          2536
    rhs       c25                          1777
    rhs       c26                          1131
    rhs       c27                          3461
    rhs       c28                          2236
    rhs       c29                          2080
    rhs       c30                          1485
    rhs       c31                          1909
    rhs       c32                          1488
    rhs       c33                          1748
    rhs       c34                           846
    rhs       c35                          2545
    rhs       c36                          1014
    rhs       c37                          3101
    rhs       c38                          2783
    rhs       c39                          1729
    rhs       c40                          1187
BOUNDS
 LI bnd       x1        0
 LI bnd       x2        0
 LI bnd       x3        0
 LI bnd       x4        0
 LI bnd       x5        0
 LI bnd       x6        0
 LI bnd       x7        0
 LI bnd       x8        0
 LI bnd       x9        0
 LI bnd       x10       0
 LI bnd       x11       0
 LI bnd       x12       0
 LI bnd       x13       0
 LI bnd       x14       0
 LI bnd       x15       0
 LI bnd       x16       0
 LI bnd       x17       0
 LI bnd       x18       0
 LI bnd       x19       0
 LI bnd       x20       0
 LI bnd       x21       0
 LI bnd       x22       0
 LI bnd       x23       0
 LI bnd       x24       0
 LI bnd       x25       0
 LI bnd       x26       0
 LI bnd       x27       0
 LI bnd       x28       0
 LI bnd       x29       0
 LI bnd       x30       0
 LI bnd       x31       0
 LI bnd       x32       0
 LI bnd       x33       0
 LI bnd       x34       0
 LI bnd       x35       0
 LI bnd       x36       0
 LI bnd       x37       0
 LI bnd       x38       0
 LI bnd       x39       0
 LI bnd       x40       0
 LI bnd       x41       0
 LI bnd       x42       0
 LI bnd       x43       0
 LI bnd       x44       0
 LI bnd       x45       0
 LI bnd       x46       0
 LI bnd       x47       0
 LI bnd       x48       0
 LI bnd       x49       0
 LI bnd       x50       0
 LI bnd       x51       0
 LI bnd       x52       0
 LI bnd       x53       0
 LI bnd       x54       0
 LI bnd       x55       0
 LI bnd       x56       0
 LI bnd       x57       0
 LI bnd       x58       0
 LI bnd       x59       0
 LI bnd       x60       0
 LI bnd       x61       0
 LI bnd       x62       0
 LI bnd       x63       0
 LI bnd       x64       0
 LI bnd       x65       0
 LI bnd       x66       0
 LI bnd       x67       0
 LI bnd       x68       0
 LI bnd       x69       0
 LI bnd       x70       0
 LI bnd       x71       0
 LI bnd       x72       0
 LI bnd       x73       0
 LI bnd       x74       0
 LI bnd       x75       0
 LI bnd       x76       0
 LI bnd       x77       0
 LI bnd       x78       0
 LI bnd       x79       0
 LI bnd       x80       0
ENDATA
